\ENCODING=ISO-8859-1
\Problem name: TSP

Minimize
 obj1: 0 x1 + 0.48948235861298 x2 + 17.7737543813387 x3 + 12.0824682488345 x4
       + 14.0716975461729 x5 + 16.4239887941829 x6 + 18.2227418784696 x7
       + 17.1098548080694 x8 + 9.12357849360979 x9 + 18.4602777340408 x10
       + 8.23585138127951 x11 + 23.668486930742 x12 + 7.7360426301221 x13
       + 18.90153756786 x14 + 8.40397020800979 x15 + 7.01794335017235 x16
       + 8.63387605640674 x17 + 17.6139666981502 x18 + 16.840350877624 x19
       + 16.9019767798094 x20 + 0.48948235861298 x21 + 0 x22
       + 18.2197082033082 x23 + 12.5706653752048 x24 + 14.4853853134452 x25
       + 16.8495940143396 x26 + 18.7079631891587 x27 + 17.4938466597406 x28
       + 9.61112950487803 x29 + 18.8252667004403 x30 + 8.5560413128712 x31
       + 24.1579603291743 x32 + 8.18851193589841 x33 + 19.3890336615785 x34
       + 8.89156801543029 x35 + 7.47489939909848 x36 + 9.09898570145902 x37
       + 18.0665160457454 x38 + 17.1928077325117 x39 + 17.3378308525303 x40
       + 17.7737543813387 x41 + 18.2197082033082 x42 + 0 x43
       + 7.7081020648241 x44 + 15.659682450562 x45 + 2.08910090285918 x46
       + 10.032519201615 x47 + 4.35067489033613 x48 + 10.8618848128288 x49
       + 5.59033482721967 x50 + 10.9566342062347 x51 + 10.6629034961979 x52
       + 13.8182485109709 x53 + 6.29085943913366 x54 + 10.2430786295083 x55
       + 10.7712659953057 x56 + 12.9298630584737 x57 + 0.628350410552582 x58
       + 6.03533205794453 x59 + 1.21070263518443 x60 + 12.0824682488345 x61
       + 12.5706653752048 x62 + 7.7081020648241 x63 + 0 x64
       + 8.52660869696621 x65 + 7.63918406724285 x66 + 6.86806714867053 x67
       + 9.91890481913392 x68 + 3.42851462413592 x69 + 11.6400056139964 x70
       + 8.71941869974379 x71 + 11.6647874189447 x72 + 6.30687707856931 x73
       + 6.8241030034341 x74 + 3.68219069475836 x75 + 5.78576710992346 x76
       + 5.32219295653516 x77 + 7.24644905366739 x78 + 10.9143544587798 x79
       + 7.50235819513399 x80 + 14.0716975461729 x81 + 14.4853853134452 x82
       + 15.659682450562 x83 + 8.52660869696621 x84 + 0 x85
       + 16.0280689083946 x86 + 8.1204815098181 x87 + 18.4213353657413 x88
       + 7.33027823587232 x89 + 20.1357996513811 x90 + 15.4481438825364 x91
       + 14.0126990469203 x92 + 6.57838478219684 x93 + 11.6831936360819 x94
       + 9.07180188840893 x95 + 11.520046063444 x96 + 6.08093369258175 x97
       + 15.0925528037152 x98 + 19.4387568266524 x99 + 15.7453980261764 x100
       + 16.4239887941829 x101 + 16.8495940143396 x102 + 2.08910090285918 x103
       + 7.63918406724285 x104 + 16.0280689083946 x105 + 0 x106
       + 11.318418793547 x107 + 2.66595204641072 x108 + 10.4033699877002 x109
       + 4.2422095192869 x110 + 9.16610173797563 x111 + 12.6157705909703 x112
       + 13.3081085365673 x113 + 7.9589856148993 x114 + 9.47995927365358 x115
       + 9.53379206236615 x116 + 12.5306423164263 x117 + 2.47541038618608 x118
       + 4.21733571632404 x119 + 0.887469086171973 x120 + 18.2227418784696 x121
       + 18.7079631891587 x122 + 10.032519201615 x123 + 6.86806714867053 x124
       + 8.1204815098181 x125 + 11.318418793547 x126 + 0 x127
       + 13.9843479087987 x128 + 9.11571641658049 x129 + 15.4910124934757 x130
       + 15.531446487624 x131 + 6.05629432260708 x132 + 10.9611177064724 x133
       + 4.22330958096851 x134 + 10.2013197855545 x135 + 12.5871018614585 x136
       + 9.88520275419054 x137 + 9.40458099816682 x138 + 15.4704687022053 x139
       + 10.6697972110204 x140 + 17.1098548080694 x141 + 17.4938466597406 x142
       + 4.35067489033613 x143 + 9.91890481913392 x144 + 18.4213353657413 x145
       + 2.66595204641072 x146 + 13.9843479087987 x147 + 0 x148
       + 12.3136354214341 x149 + 1.72394509050646 x150 + 9.19201914559426 x151
       + 15.0046251629545 x152 + 15.1017023921456 x153 + 10.5495813086775 x154
       + 11.1357286495172 x155 + 10.6061652712375 x156 + 14.4394230962431 x157
       + 4.8974223145339 x158 + 1.70442313082942 x159 + 3.38012115042701 x160
       + 9.12357849360979 x161 + 9.61112950487803 x162 + 10.8618848128288 x163
       + 3.42851462413592 x164 + 7.33027823587232 x165 + 10.4033699877002 x166
       + 9.11571641658049 x167 + 12.3136354214341 x168 + 0 x169
       + 14.0181972166122 x170 + 8.14048711084655 x171 + 14.598535720228 x172
       + 2.95687491847502 x173 + 10.0665525595631 x174 + 1.74268787900394 x175
       + 4.28091366086037 x176 + 2.13262147990643 x177 + 10.4650359674999 x178
       + 12.971337010202 x179 + 10.4548845278107 x180 + 18.4602777340408 x181
       + 18.8252667004403 x182 + 5.59033482721967 x183 + 11.6400056139964 x184
       + 20.1357996513811 x185 + 4.2422095192869 x186 + 15.4910124934757 x187
       + 1.72394509050646 x188 + 14.0181972166122 x189 + 0 x190
       + 10.3729264375347 x191 + 16.0663826187679 x192 + 16.7839778874261 x193
       + 11.8803345735435 x194 + 12.8054911510535 x195 + 12.1432676082168 x196
       + 16.1403574549319 x197 + 6.19233027450512 x198 + 1.75900298459495 x199
       + 4.82133881708925 x200 + 8.23585138127951 x201 + 8.5560413128712 x202
       + 10.9566342062347 x203 + 8.71941869974379 x204 + 15.4481438825364 x205
       + 9.16610173797563 x206 + 15.531446487624 x207 + 9.19201914559426 x208
       + 8.14048711084655 x209 + 10.3729264375347 x210 + 0 x211
       + 19.5313287656659 x212 + 9.56780703010383 x213 + 14.3416621341366 x214
       + 6.4028691548503 x215 + 3.96179968646472 x216 + 9.5701360470543 x217
       + 11.0112113137932 x218 + 8.68963152361242 x219 + 9.85824731516415 x220
       + 23.668486930742 x221 + 24.1579603291743 x222 + 10.6629034961979 x223
       + 11.6647874189447 x224 + 14.0126990469203 x225 + 12.6157705909703 x226
       + 6.05629432260708 x227 + 15.0046251629545 x228 + 14.598535720228 x229
       + 16.0663826187679 x230 + 19.5313287656659 x231 + 0 x232
       + 16.8031943228316 x233 + 5.19264741016612 x234 + 15.3249089206165 x235
       + 17.3655254804227 x236 + 15.7074178336994 x237 + 10.1603752026252 x238
       + 16.6969709356662 x239 + 11.7520825598939 x240 + 7.7360426301221 x241
       + 8.18851193589841 x242 + 13.8182485109709 x243 + 6.30687707856931 x244
       + 6.57838478219684 x245 + 13.3081085365673 x246 + 10.9611177064724 x247
       + 15.1017023921456 x248 + 2.95687491847502 x249 + 16.7839778874261 x250
       + 9.56780703010383 x251 + 16.8031943228316 x252 + 0 x253
       + 12.6376020387852 x254 + 3.99567720753865 x255 + 5.66325566136174 x256
       + 1.09944041884933 x257 + 13.4212062915129 x258 + 15.6283110157224 x259
       + 13.3928819986413 x260 + 18.90153756786 x261 + 19.3890336615785 x262
       + 6.29085943913366 x263 + 6.8241030034341 x264 + 11.6831936360819 x265
       + 7.9589856148993 x266 + 4.22330958096851 x267 + 10.5495813086775 x268
       + 10.0665525595631 x269 + 11.8803345735435 x270 + 14.3416621341366 x271
       + 5.19264741016612 x272 + 12.6376020387852 x273 + 0 x274
       + 10.4975746275554 x275 + 12.3336464979736 x276 + 11.5489842956311 x277
       + 5.69006327195746 x278 + 12.1706432263853 x279 + 7.17179806703547 x280
       + 8.40397020800979 x281 + 8.89156801543029 x282 + 10.2430786295083 x283
       + 3.68219069475836 x284 + 9.07180188840893 x285 + 9.47995927365358 x286
       + 10.2013197855545 x287 + 11.1357286495172 x288 + 1.74268787900394 x289
       + 12.8054911510535 x290 + 6.4028691548503 x291 + 15.3249089206165 x292
       + 3.99567720753865 x293 + 10.4975746275554 x294 + 0 x295
       + 2.60764782889005 x296 + 3.52480692550891 x297 + 9.92821783012826 x298
       + 11.6326358985062 x299 + 9.66502118226041 x300 + 7.01794335017235 x301
       + 7.47489939909848 x302 + 10.7712659953057 x303 + 5.78576710992346 x304
       + 11.520046063444 x305 + 9.53379206236615 x306 + 12.5871018614585 x307
       + 10.6061652712375 x308 + 4.28091366086037 x309 + 12.1432676082168 x310
       + 3.96179968646472 x311 + 17.3655254804227 x312 + 5.66325566136174 x313
       + 12.3336464979736 x314 + 2.60764782889005 x315 + 0 x316
       + 5.60915816332194 x317 + 10.5977697821994 x318 + 10.7218284513862 x319
       + 9.94395862592366 x320 + 8.63387605640674 x321 + 9.09898570145902 x322
       + 12.9298630584737 x323 + 5.32219295653516 x324 + 6.08093369258175 x325
       + 12.5306423164263 x326 + 9.88520275419054 x327 + 14.4394230962431 x328
       + 2.13262147990643 x329 + 16.1403574549319 x330 + 9.5701360470543 x331
       + 15.7074178336994 x332 + 1.09944041884933 x333 + 11.5489842956311 x334
       + 3.52480692550891 x335 + 5.60915816332194 x336 + 0 x337
       + 12.5099155815206 x338 + 15.0631977005402 x339 + 12.5640807491514 x340
       + 17.6139666981502 x341 + 18.0665160457454 x342 + 0.628350410552582 x343
       + 7.24644905366739 x344 + 15.0925528037152 x345 + 2.47541038618608 x346
       + 9.40458099816682 x347 + 4.8974223145339 x348 + 10.4650359674999 x349
       + 6.19233027450512 x350 + 11.0112113137932 x351 + 10.1603752026252 x352
       + 13.4212062915129 x353 + 5.69006327195746 x354 + 9.92821783012826 x355
       + 10.5977697821994 x356 + 12.5099155815206 x357 + 0 x358
       + 6.56340304830024 x359 + 1.59623007764948 x360 + 16.840350877624 x361
       + 17.1928077325117 x362 + 6.03533205794453 x363 + 10.9143544587798 x364
       + 19.4387568266524 x365 + 4.21733571632404 x366 + 15.4704687022053 x367
       + 1.70442313082942 x368 + 12.971337010202 x369 + 1.75900298459495 x370
       + 8.68963152361242 x371 + 16.6969709356662 x372 + 15.6283110157224 x373
       + 12.1706432263853 x374 + 11.6326358985062 x375 + 10.7218284513862 x376
       + 15.0631977005402 x377 + 6.56340304830024 x378 + 0 x379
       + 5.00778730846202 x380 + 16.9019767798094 x381 + 17.3378308525303 x382
       + 1.21070263518443 x383 + 7.50235819513399 x384 + 15.7453980261764 x385
       + 0.887469086171973 x386 + 10.6697972110204 x387 + 3.38012115042701 x388
       + 10.4548845278107 x389 + 4.82133881708925 x390 + 9.85824731516415 x391
       + 11.7520825598939 x392 + 13.3928819986413 x393 + 7.17179806703547 x394
       + 9.66502118226041 x395 + 9.94395862592366 x396 + 12.5640807491514 x397
       + 1.59623007764948 x398 + 5.00778730846202 x399 + 0 x400 + 0 x401
       + 0 x402 + 0 x403 + 0 x404 + 0 x405 + 0 x406 + 0 x407 + 0 x408 + 0 x409
       + 0 x410 + 0 x411 + 0 x412 + 0 x413 + 0 x414 + 0 x415 + 0 x416 + 0 x417
       + 0 x418 + 0 x419
Subject To
 c1:  x21 + x41 + x61 + x81 + x101 + x121 + x141 + x161 + x181 + x201 + x221
      + x241 + x261 + x281 + x301 + x321 + x341 + x361 + x381  = 1
 c2:  x2 + x42 + x62 + x82 + x102 + x122 + x142 + x162 + x182 + x202 + x222
      + x242 + x262 + x282 + x302 + x322 + x342 + x362 + x382  = 1
 c3:  x3 + x23 + x63 + x83 + x103 + x123 + x143 + x163 + x183 + x203 + x223
      + x243 + x263 + x283 + x303 + x323 + x343 + x363 + x383  = 1
 c4:  x4 + x24 + x44 + x84 + x104 + x124 + x144 + x164 + x184 + x204 + x224
      + x244 + x264 + x284 + x304 + x324 + x344 + x364 + x384  = 1
 c5:  x5 + x25 + x45 + x65 + x105 + x125 + x145 + x165 + x185 + x205 + x225
      + x245 + x265 + x285 + x305 + x325 + x345 + x365 + x385  = 1
 c6:  x6 + x26 + x46 + x66 + x86 + x126 + x146 + x166 + x186 + x206 + x226
      + x246 + x266 + x286 + x306 + x326 + x346 + x366 + x386  = 1
 c7:  x7 + x27 + x47 + x67 + x87 + x107 + x147 + x167 + x187 + x207 + x227
      + x247 + x267 + x287 + x307 + x327 + x347 + x367 + x387  = 1
 c8:  x8 + x28 + x48 + x68 + x88 + x108 + x128 + x168 + x188 + x208 + x228
      + x248 + x268 + x288 + x308 + x328 + x348 + x368 + x388  = 1
 c9:  x9 + x29 + x49 + x69 + x89 + x109 + x129 + x149 + x189 + x209 + x229
      + x249 + x269 + x289 + x309 + x329 + x349 + x369 + x389  = 1
 c10: x10 + x30 + x50 + x70 + x90 + x110 + x130 + x150 + x170 + x210 + x230
      + x250 + x270 + x290 + x310 + x330 + x350 + x370 + x390  = 1
 c11: x11 + x31 + x51 + x71 + x91 + x111 + x131 + x151 + x171 + x191 + x231
      + x251 + x271 + x291 + x311 + x331 + x351 + x371 + x391  = 1
 c12: x12 + x32 + x52 + x72 + x92 + x112 + x132 + x152 + x172 + x192 + x212
      + x252 + x272 + x292 + x312 + x332 + x352 + x372 + x392  = 1
 c13: x13 + x33 + x53 + x73 + x93 + x113 + x133 + x153 + x173 + x193 + x213
      + x233 + x273 + x293 + x313 + x333 + x353 + x373 + x393  = 1
 c14: x14 + x34 + x54 + x74 + x94 + x114 + x134 + x154 + x174 + x194 + x214
      + x234 + x254 + x294 + x314 + x334 + x354 + x374 + x394  = 1
 c15: x15 + x35 + x55 + x75 + x95 + x115 + x135 + x155 + x175 + x195 + x215
      + x235 + x255 + x275 + x315 + x335 + x355 + x375 + x395  = 1
 c16: x16 + x36 + x56 + x76 + x96 + x116 + x136 + x156 + x176 + x196 + x216
      + x236 + x256 + x276 + x296 + x336 + x356 + x376 + x396  = 1
 c17: x17 + x37 + x57 + x77 + x97 + x117 + x137 + x157 + x177 + x197 + x217
      + x237 + x257 + x277 + x297 + x317 + x357 + x377 + x397  = 1
 c18: x18 + x38 + x58 + x78 + x98 + x118 + x138 + x158 + x178 + x198 + x218
      + x238 + x258 + x278 + x298 + x318 + x338 + x378 + x398  = 1
 c19: x19 + x39 + x59 + x79 + x99 + x119 + x139 + x159 + x179 + x199 + x219
      + x239 + x259 + x279 + x299 + x319 + x339 + x359 + x399  = 1
 c20: x20 + x40 + x60 + x80 + x100 + x120 + x140 + x160 + x180 + x200 + x220
      + x240 + x260 + x280 + x300 + x320 + x340 + x360 + x380  = 1
 c21: x2 + x3 + x4 + x5 + x6 + x7 + x8 + x9 + x10 + x11 + x12 + x13 + x14 + x15
      + x16 + x17 + x18 + x19 + x20  = 1
 c22: x21 + x23 + x24 + x25 + x26 + x27 + x28 + x29 + x30 + x31 + x32 + x33
      + x34 + x35 + x36 + x37 + x38 + x39 + x40  = 1
 c23: x41 + x42 + x44 + x45 + x46 + x47 + x48 + x49 + x50 + x51 + x52 + x53
      + x54 + x55 + x56 + x57 + x58 + x59 + x60  = 1
 c24: x61 + x62 + x63 + x65 + x66 + x67 + x68 + x69 + x70 + x71 + x72 + x73
      + x74 + x75 + x76 + x77 + x78 + x79 + x80  = 1
 c25: x81 + x82 + x83 + x84 + x86 + x87 + x88 + x89 + x90 + x91 + x92 + x93
      + x94 + x95 + x96 + x97 + x98 + x99 + x100  = 1
 c26: x101 + x102 + x103 + x104 + x105 + x107 + x108 + x109 + x110 + x111
      + x112 + x113 + x114 + x115 + x116 + x117 + x118 + x119 + x120  = 1
 c27: x121 + x122 + x123 + x124 + x125 + x126 + x128 + x129 + x130 + x131
      + x132 + x133 + x134 + x135 + x136 + x137 + x138 + x139 + x140  = 1
 c28: x141 + x142 + x143 + x144 + x145 + x146 + x147 + x149 + x150 + x151
      + x152 + x153 + x154 + x155 + x156 + x157 + x158 + x159 + x160  = 1
 c29: x161 + x162 + x163 + x164 + x165 + x166 + x167 + x168 + x170 + x171
      + x172 + x173 + x174 + x175 + x176 + x177 + x178 + x179 + x180  = 1
 c30: x181 + x182 + x183 + x184 + x185 + x186 + x187 + x188 + x189 + x191
      + x192 + x193 + x194 + x195 + x196 + x197 + x198 + x199 + x200  = 1
 c31: x201 + x202 + x203 + x204 + x205 + x206 + x207 + x208 + x209 + x210
      + x212 + x213 + x214 + x215 + x216 + x217 + x218 + x219 + x220  = 1
 c32: x221 + x222 + x223 + x224 + x225 + x226 + x227 + x228 + x229 + x230
      + x231 + x233 + x234 + x235 + x236 + x237 + x238 + x239 + x240  = 1
 c33: x241 + x242 + x243 + x244 + x245 + x246 + x247 + x248 + x249 + x250
      + x251 + x252 + x254 + x255 + x256 + x257 + x258 + x259 + x260  = 1
 c34: x261 + x262 + x263 + x264 + x265 + x266 + x267 + x268 + x269 + x270
      + x271 + x272 + x273 + x275 + x276 + x277 + x278 + x279 + x280  = 1
 c35: x281 + x282 + x283 + x284 + x285 + x286 + x287 + x288 + x289 + x290
      + x291 + x292 + x293 + x294 + x296 + x297 + x298 + x299 + x300  = 1
 c36: x301 + x302 + x303 + x304 + x305 + x306 + x307 + x308 + x309 + x310
      + x311 + x312 + x313 + x314 + x315 + x317 + x318 + x319 + x320  = 1
 c37: x321 + x322 + x323 + x324 + x325 + x326 + x327 + x328 + x329 + x330
      + x331 + x332 + x333 + x334 + x335 + x336 + x338 + x339 + x340  = 1
 c38: x341 + x342 + x343 + x344 + x345 + x346 + x347 + x348 + x349 + x350
      + x351 + x352 + x353 + x354 + x355 + x356 + x357 + x359 + x360  = 1
 c39: x361 + x362 + x363 + x364 + x365 + x366 + x367 + x368 + x369 + x370
      + x371 + x372 + x373 + x374 + x375 + x376 + x377 + x378 + x380  = 1
 c40: x381 + x382 + x383 + x384 + x385 + x386 + x387 + x388 + x389 + x390
      + x391 + x392 + x393 + x394 + x395 + x396 + x397 + x398 + x399  = 1
Lazy Constraints
 l1:   x401 - x402 + 19 x23 <= 18
 l2:   x401 - x403 + 19 x24 <= 18
 l3:   x401 - x404 + 19 x25 <= 18
 l4:   x401 - x405 + 19 x26 <= 18
 l5:   x401 - x406 + 19 x27 <= 18
 l6:   x401 - x407 + 19 x28 <= 18
 l7:   x401 - x408 + 19 x29 <= 18
 l8:   x401 - x409 + 19 x30 <= 18
 l9:   x401 - x410 + 19 x31 <= 18
 l10:  x401 - x411 + 19 x32 <= 18
 l11:  x401 - x412 + 19 x33 <= 18
 l12:  x401 - x413 + 19 x34 <= 18
 l13:  x401 - x414 + 19 x35 <= 18
 l14:  x401 - x415 + 19 x36 <= 18
 l15:  x401 - x416 + 19 x37 <= 18
 l16:  x401 - x417 + 19 x38 <= 18
 l17:  x401 - x418 + 19 x39 <= 18
 l18:  x401 - x419 + 19 x40 <= 18
 l19:  x402 - x401 + 19 x42 <= 18
 l20:  x402 - x403 + 19 x44 <= 18
 l21:  x402 - x404 + 19 x45 <= 18
 l22:  x402 - x405 + 19 x46 <= 18
 l23:  x402 - x406 + 19 x47 <= 18
 l24:  x402 - x407 + 19 x48 <= 18
 l25:  x402 - x408 + 19 x49 <= 18
 l26:  x402 - x409 + 19 x50 <= 18
 l27:  x402 - x410 + 19 x51 <= 18
 l28:  x402 - x411 + 19 x52 <= 18
 l29:  x402 - x412 + 19 x53 <= 18
 l30:  x402 - x413 + 19 x54 <= 18
 l31:  x402 - x414 + 19 x55 <= 18
 l32:  x402 - x415 + 19 x56 <= 18
 l33:  x402 - x416 + 19 x57 <= 18
 l34:  x402 - x417 + 19 x58 <= 18
 l35:  x402 - x418 + 19 x59 <= 18
 l36:  x402 - x419 + 19 x60 <= 18
 l37:  x403 - x401 + 19 x62 <= 18
 l38:  x403 - x402 + 19 x63 <= 18
 l39:  x403 - x404 + 19 x65 <= 18
 l40:  x403 - x405 + 19 x66 <= 18
 l41:  x403 - x406 + 19 x67 <= 18
 l42:  x403 - x407 + 19 x68 <= 18
 l43:  x403 - x408 + 19 x69 <= 18
 l44:  x403 - x409 + 19 x70 <= 18
 l45:  x403 - x410 + 19 x71 <= 18
 l46:  x403 - x411 + 19 x72 <= 18
 l47:  x403 - x412 + 19 x73 <= 18
 l48:  x403 - x413 + 19 x74 <= 18
 l49:  x403 - x414 + 19 x75 <= 18
 l50:  x403 - x415 + 19 x76 <= 18
 l51:  x403 - x416 + 19 x77 <= 18
 l52:  x403 - x417 + 19 x78 <= 18
 l53:  x403 - x418 + 19 x79 <= 18
 l54:  x403 - x419 + 19 x80 <= 18
 l55:  x404 - x401 + 19 x82 <= 18
 l56:  x404 - x402 + 19 x83 <= 18
 l57:  x404 - x403 + 19 x84 <= 18
 l58:  x404 - x405 + 19 x86 <= 18
 l59:  x404 - x406 + 19 x87 <= 18
 l60:  x404 - x407 + 19 x88 <= 18
 l61:  x404 - x408 + 19 x89 <= 18
 l62:  x404 - x409 + 19 x90 <= 18
 l63:  x404 - x410 + 19 x91 <= 18
 l64:  x404 - x411 + 19 x92 <= 18
 l65:  x404 - x412 + 19 x93 <= 18
 l66:  x404 - x413 + 19 x94 <= 18
 l67:  x404 - x414 + 19 x95 <= 18
 l68:  x404 - x415 + 19 x96 <= 18
 l69:  x404 - x416 + 19 x97 <= 18
 l70:  x404 - x417 + 19 x98 <= 18
 l71:  x404 - x418 + 19 x99 <= 18
 l72:  x404 - x419 + 19 x100 <= 18
 l73:  x405 - x401 + 19 x102 <= 18
 l74:  x405 - x402 + 19 x103 <= 18
 l75:  x405 - x403 + 19 x104 <= 18
 l76:  x405 - x404 + 19 x105 <= 18
 l77:  x405 - x406 + 19 x107 <= 18
 l78:  x405 - x407 + 19 x108 <= 18
 l79:  x405 - x408 + 19 x109 <= 18
 l80:  x405 - x409 + 19 x110 <= 18
 l81:  x405 - x410 + 19 x111 <= 18
 l82:  x405 - x411 + 19 x112 <= 18
 l83:  x405 - x412 + 19 x113 <= 18
 l84:  x405 - x413 + 19 x114 <= 18
 l85:  x405 - x414 + 19 x115 <= 18
 l86:  x405 - x415 + 19 x116 <= 18
 l87:  x405 - x416 + 19 x117 <= 18
 l88:  x405 - x417 + 19 x118 <= 18
 l89:  x405 - x418 + 19 x119 <= 18
 l90:  x405 - x419 + 19 x120 <= 18
 l91:  x406 - x401 + 19 x122 <= 18
 l92:  x406 - x402 + 19 x123 <= 18
 l93:  x406 - x403 + 19 x124 <= 18
 l94:  x406 - x404 + 19 x125 <= 18
 l95:  x406 - x405 + 19 x126 <= 18
 l96:  x406 - x407 + 19 x128 <= 18
 l97:  x406 - x408 + 19 x129 <= 18
 l98:  x406 - x409 + 19 x130 <= 18
 l99:  x406 - x410 + 19 x131 <= 18
 l100: x406 - x411 + 19 x132 <= 18
 l101: x406 - x412 + 19 x133 <= 18
 l102: x406 - x413 + 19 x134 <= 18
 l103: x406 - x414 + 19 x135 <= 18
 l104: x406 - x415 + 19 x136 <= 18
 l105: x406 - x416 + 19 x137 <= 18
 l106: x406 - x417 + 19 x138 <= 18
 l107: x406 - x418 + 19 x139 <= 18
 l108: x406 - x419 + 19 x140 <= 18
 l109: x407 - x401 + 19 x142 <= 18
 l110: x407 - x402 + 19 x143 <= 18
 l111: x407 - x403 + 19 x144 <= 18
 l112: x407 - x404 + 19 x145 <= 18
 l113: x407 - x405 + 19 x146 <= 18
 l114: x407 - x406 + 19 x147 <= 18
 l115: x407 - x408 + 19 x149 <= 18
 l116: x407 - x409 + 19 x150 <= 18
 l117: x407 - x410 + 19 x151 <= 18
 l118: x407 - x411 + 19 x152 <= 18
 l119: x407 - x412 + 19 x153 <= 18
 l120: x407 - x413 + 19 x154 <= 18
 l121: x407 - x414 + 19 x155 <= 18
 l122: x407 - x415 + 19 x156 <= 18
 l123: x407 - x416 + 19 x157 <= 18
 l124: x407 - x417 + 19 x158 <= 18
 l125: x407 - x418 + 19 x159 <= 18
 l126: x407 - x419 + 19 x160 <= 18
 l127: x408 - x401 + 19 x162 <= 18
 l128: x408 - x402 + 19 x163 <= 18
 l129: x408 - x403 + 19 x164 <= 18
 l130: x408 - x404 + 19 x165 <= 18
 l131: x408 - x405 + 19 x166 <= 18
 l132: x408 - x406 + 19 x167 <= 18
 l133: x408 - x407 + 19 x168 <= 18
 l134: x408 - x409 + 19 x170 <= 18
 l135: x408 - x410 + 19 x171 <= 18
 l136: x408 - x411 + 19 x172 <= 18
 l137: x408 - x412 + 19 x173 <= 18
 l138: x408 - x413 + 19 x174 <= 18
 l139: x408 - x414 + 19 x175 <= 18
 l140: x408 - x415 + 19 x176 <= 18
 l141: x408 - x416 + 19 x177 <= 18
 l142: x408 - x417 + 19 x178 <= 18
 l143: x408 - x418 + 19 x179 <= 18
 l144: x408 - x419 + 19 x180 <= 18
 l145: x409 - x401 + 19 x182 <= 18
 l146: x409 - x402 + 19 x183 <= 18
 l147: x409 - x403 + 19 x184 <= 18
 l148: x409 - x404 + 19 x185 <= 18
 l149: x409 - x405 + 19 x186 <= 18
 l150: x409 - x406 + 19 x187 <= 18
 l151: x409 - x407 + 19 x188 <= 18
 l152: x409 - x408 + 19 x189 <= 18
 l153: x409 - x410 + 19 x191 <= 18
 l154: x409 - x411 + 19 x192 <= 18
 l155: x409 - x412 + 19 x193 <= 18
 l156: x409 - x413 + 19 x194 <= 18
 l157: x409 - x414 + 19 x195 <= 18
 l158: x409 - x415 + 19 x196 <= 18
 l159: x409 - x416 + 19 x197 <= 18
 l160: x409 - x417 + 19 x198 <= 18
 l161: x409 - x418 + 19 x199 <= 18
 l162: x409 - x419 + 19 x200 <= 18
 l163: x410 - x401 + 19 x202 <= 18
 l164: x410 - x402 + 19 x203 <= 18
 l165: x410 - x403 + 19 x204 <= 18
 l166: x410 - x404 + 19 x205 <= 18
 l167: x410 - x405 + 19 x206 <= 18
 l168: x410 - x406 + 19 x207 <= 18
 l169: x410 - x407 + 19 x208 <= 18
 l170: x410 - x408 + 19 x209 <= 18
 l171: x410 - x409 + 19 x210 <= 18
 l172: x410 - x411 + 19 x212 <= 18
 l173: x410 - x412 + 19 x213 <= 18
 l174: x410 - x413 + 19 x214 <= 18
 l175: x410 - x414 + 19 x215 <= 18
 l176: x410 - x415 + 19 x216 <= 18
 l177: x410 - x416 + 19 x217 <= 18
 l178: x410 - x417 + 19 x218 <= 18
 l179: x410 - x418 + 19 x219 <= 18
 l180: x410 - x419 + 19 x220 <= 18
 l181: x411 - x401 + 19 x222 <= 18
 l182: x411 - x402 + 19 x223 <= 18
 l183: x411 - x403 + 19 x224 <= 18
 l184: x411 - x404 + 19 x225 <= 18
 l185: x411 - x405 + 19 x226 <= 18
 l186: x411 - x406 + 19 x227 <= 18
 l187: x411 - x407 + 19 x228 <= 18
 l188: x411 - x408 + 19 x229 <= 18
 l189: x411 - x409 + 19 x230 <= 18
 l190: x411 - x410 + 19 x231 <= 18
 l191: x411 - x412 + 19 x233 <= 18
 l192: x411 - x413 + 19 x234 <= 18
 l193: x411 - x414 + 19 x235 <= 18
 l194: x411 - x415 + 19 x236 <= 18
 l195: x411 - x416 + 19 x237 <= 18
 l196: x411 - x417 + 19 x238 <= 18
 l197: x411 - x418 + 19 x239 <= 18
 l198: x411 - x419 + 19 x240 <= 18
 l199: x412 - x401 + 19 x242 <= 18
 l200: x412 - x402 + 19 x243 <= 18
 l201: x412 - x403 + 19 x244 <= 18
 l202: x412 - x404 + 19 x245 <= 18
 l203: x412 - x405 + 19 x246 <= 18
 l204: x412 - x406 + 19 x247 <= 18
 l205: x412 - x407 + 19 x248 <= 18
 l206: x412 - x408 + 19 x249 <= 18
 l207: x412 - x409 + 19 x250 <= 18
 l208: x412 - x410 + 19 x251 <= 18
 l209: x412 - x411 + 19 x252 <= 18
 l210: x412 - x413 + 19 x254 <= 18
 l211: x412 - x414 + 19 x255 <= 18
 l212: x412 - x415 + 19 x256 <= 18
 l213: x412 - x416 + 19 x257 <= 18
 l214: x412 - x417 + 19 x258 <= 18
 l215: x412 - x418 + 19 x259 <= 18
 l216: x412 - x419 + 19 x260 <= 18
 l217: x413 - x401 + 19 x262 <= 18
 l218: x413 - x402 + 19 x263 <= 18
 l219: x413 - x403 + 19 x264 <= 18
 l220: x413 - x404 + 19 x265 <= 18
 l221: x413 - x405 + 19 x266 <= 18
 l222: x413 - x406 + 19 x267 <= 18
 l223: x413 - x407 + 19 x268 <= 18
 l224: x413 - x408 + 19 x269 <= 18
 l225: x413 - x409 + 19 x270 <= 18
 l226: x413 - x410 + 19 x271 <= 18
 l227: x413 - x411 + 19 x272 <= 18
 l228: x413 - x412 + 19 x273 <= 18
 l229: x413 - x414 + 19 x275 <= 18
 l230: x413 - x415 + 19 x276 <= 18
 l231: x413 - x416 + 19 x277 <= 18
 l232: x413 - x417 + 19 x278 <= 18
 l233: x413 - x418 + 19 x279 <= 18
 l234: x413 - x419 + 19 x280 <= 18
 l235: x414 - x401 + 19 x282 <= 18
 l236: x414 - x402 + 19 x283 <= 18
 l237: x414 - x403 + 19 x284 <= 18
 l238: x414 - x404 + 19 x285 <= 18
 l239: x414 - x405 + 19 x286 <= 18
 l240: x414 - x406 + 19 x287 <= 18
 l241: x414 - x407 + 19 x288 <= 18
 l242: x414 - x408 + 19 x289 <= 18
 l243: x414 - x409 + 19 x290 <= 18
 l244: x414 - x410 + 19 x291 <= 18
 l245: x414 - x411 + 19 x292 <= 18
 l246: x414 - x412 + 19 x293 <= 18
 l247: x414 - x413 + 19 x294 <= 18
 l248: x414 - x415 + 19 x296 <= 18
 l249: x414 - x416 + 19 x297 <= 18
 l250: x414 - x417 + 19 x298 <= 18
 l251: x414 - x418 + 19 x299 <= 18
 l252: x414 - x419 + 19 x300 <= 18
 l253: x415 - x401 + 19 x302 <= 18
 l254: x415 - x402 + 19 x303 <= 18
 l255: x415 - x403 + 19 x304 <= 18
 l256: x415 - x404 + 19 x305 <= 18
 l257: x415 - x405 + 19 x306 <= 18
 l258: x415 - x406 + 19 x307 <= 18
 l259: x415 - x407 + 19 x308 <= 18
 l260: x415 - x408 + 19 x309 <= 18
 l261: x415 - x409 + 19 x310 <= 18
 l262: x415 - x410 + 19 x311 <= 18
 l263: x415 - x411 + 19 x312 <= 18
 l264: x415 - x412 + 19 x313 <= 18
 l265: x415 - x413 + 19 x314 <= 18
 l266: x415 - x414 + 19 x315 <= 18
 l267: x415 - x416 + 19 x317 <= 18
 l268: x415 - x417 + 19 x318 <= 18
 l269: x415 - x418 + 19 x319 <= 18
 l270: x415 - x419 + 19 x320 <= 18
 l271: x416 - x401 + 19 x322 <= 18
 l272: x416 - x402 + 19 x323 <= 18
 l273: x416 - x403 + 19 x324 <= 18
 l274: x416 - x404 + 19 x325 <= 18
 l275: x416 - x405 + 19 x326 <= 18
 l276: x416 - x406 + 19 x327 <= 18
 l277: x416 - x407 + 19 x328 <= 18
 l278: x416 - x408 + 19 x329 <= 18
 l279: x416 - x409 + 19 x330 <= 18
 l280: x416 - x410 + 19 x331 <= 18
 l281: x416 - x411 + 19 x332 <= 18
 l282: x416 - x412 + 19 x333 <= 18
 l283: x416 - x413 + 19 x334 <= 18
 l284: x416 - x414 + 19 x335 <= 18
 l285: x416 - x415 + 19 x336 <= 18
 l286: x416 - x417 + 19 x338 <= 18
 l287: x416 - x418 + 19 x339 <= 18
 l288: x416 - x419 + 19 x340 <= 18
 l289: x417 - x401 + 19 x342 <= 18
 l290: x417 - x402 + 19 x343 <= 18
 l291: x417 - x403 + 19 x344 <= 18
 l292: x417 - x404 + 19 x345 <= 18
 l293: x417 - x405 + 19 x346 <= 18
 l294: x417 - x406 + 19 x347 <= 18
 l295: x417 - x407 + 19 x348 <= 18
 l296: x417 - x408 + 19 x349 <= 18
 l297: x417 - x409 + 19 x350 <= 18
 l298: x417 - x410 + 19 x351 <= 18
 l299: x417 - x411 + 19 x352 <= 18
 l300: x417 - x412 + 19 x353 <= 18
 l301: x417 - x413 + 19 x354 <= 18
 l302: x417 - x414 + 19 x355 <= 18
 l303: x417 - x415 + 19 x356 <= 18
 l304: x417 - x416 + 19 x357 <= 18
 l305: x417 - x418 + 19 x359 <= 18
 l306: x417 - x419 + 19 x360 <= 18
 l307: x418 - x401 + 19 x362 <= 18
 l308: x418 - x402 + 19 x363 <= 18
 l309: x418 - x403 + 19 x364 <= 18
 l310: x418 - x404 + 19 x365 <= 18
 l311: x418 - x405 + 19 x366 <= 18
 l312: x418 - x406 + 19 x367 <= 18
 l313: x418 - x407 + 19 x368 <= 18
 l314: x418 - x408 + 19 x369 <= 18
 l315: x418 - x409 + 19 x370 <= 18
 l316: x418 - x410 + 19 x371 <= 18
 l317: x418 - x411 + 19 x372 <= 18
 l318: x418 - x412 + 19 x373 <= 18
 l319: x418 - x413 + 19 x374 <= 18
 l320: x418 - x414 + 19 x375 <= 18
 l321: x418 - x415 + 19 x376 <= 18
 l322: x418 - x416 + 19 x377 <= 18
 l323: x418 - x417 + 19 x378 <= 18
 l324: x418 - x419 + 19 x380 <= 18
 l325: x419 - x401 + 19 x382 <= 18
 l326: x419 - x402 + 19 x383 <= 18
 l327: x419 - x403 + 19 x384 <= 18
 l328: x419 - x404 + 19 x385 <= 18
 l329: x419 - x405 + 19 x386 <= 18
 l330: x419 - x406 + 19 x387 <= 18
 l331: x419 - x407 + 19 x388 <= 18
 l332: x419 - x408 + 19 x389 <= 18
 l333: x419 - x409 + 19 x390 <= 18
 l334: x419 - x410 + 19 x391 <= 18
 l335: x419 - x411 + 19 x392 <= 18
 l336: x419 - x412 + 19 x393 <= 18
 l337: x419 - x413 + 19 x394 <= 18
 l338: x419 - x414 + 19 x395 <= 18
 l339: x419 - x415 + 19 x396 <= 18
 l340: x419 - x416 + 19 x397 <= 18
 l341: x419 - x417 + 19 x398 <= 18
 l342: x419 - x418 + 19 x399 <= 18
Bounds
      x1 = 0
 0 <= x2 <= 1
 0 <= x3 <= 1
 0 <= x4 <= 1
 0 <= x5 <= 1
 0 <= x6 <= 1
 0 <= x7 <= 1
 0 <= x8 <= 1
 0 <= x9 <= 1
 0 <= x10 <= 1
 0 <= x11 <= 1
 0 <= x12 <= 1
 0 <= x13 <= 1
 0 <= x14 <= 1
 0 <= x15 <= 1
 0 <= x16 <= 1
 0 <= x17 <= 1
 0 <= x18 <= 1
 0 <= x19 <= 1
 0 <= x20 <= 1
 0 <= x21 <= 1
      x22 = 0
 0 <= x23 <= 1
 0 <= x24 <= 1
 0 <= x25 <= 1
 0 <= x26 <= 1
 0 <= x27 <= 1
 0 <= x28 <= 1
 0 <= x29 <= 1
 0 <= x30 <= 1
 0 <= x31 <= 1
 0 <= x32 <= 1
 0 <= x33 <= 1
 0 <= x34 <= 1
 0 <= x35 <= 1
 0 <= x36 <= 1
 0 <= x37 <= 1
 0 <= x38 <= 1
 0 <= x39 <= 1
 0 <= x40 <= 1
 0 <= x41 <= 1
 0 <= x42 <= 1
      x43 = 0
 0 <= x44 <= 1
 0 <= x45 <= 1
 0 <= x46 <= 1
 0 <= x47 <= 1
 0 <= x48 <= 1
 0 <= x49 <= 1
 0 <= x50 <= 1
 0 <= x51 <= 1
 0 <= x52 <= 1
 0 <= x53 <= 1
 0 <= x54 <= 1
 0 <= x55 <= 1
 0 <= x56 <= 1
 0 <= x57 <= 1
 0 <= x58 <= 1
 0 <= x59 <= 1
 0 <= x60 <= 1
 0 <= x61 <= 1
 0 <= x62 <= 1
 0 <= x63 <= 1
      x64 = 0
 0 <= x65 <= 1
 0 <= x66 <= 1
 0 <= x67 <= 1
 0 <= x68 <= 1
 0 <= x69 <= 1
 0 <= x70 <= 1
 0 <= x71 <= 1
 0 <= x72 <= 1
 0 <= x73 <= 1
 0 <= x74 <= 1
 0 <= x75 <= 1
 0 <= x76 <= 1
 0 <= x77 <= 1
 0 <= x78 <= 1
 0 <= x79 <= 1
 0 <= x80 <= 1
 0 <= x81 <= 1
 0 <= x82 <= 1
 0 <= x83 <= 1
 0 <= x84 <= 1
      x85 = 0
 0 <= x86 <= 1
 0 <= x87 <= 1
 0 <= x88 <= 1
 0 <= x89 <= 1
 0 <= x90 <= 1
 0 <= x91 <= 1
 0 <= x92 <= 1
 0 <= x93 <= 1
 0 <= x94 <= 1
 0 <= x95 <= 1
 0 <= x96 <= 1
 0 <= x97 <= 1
 0 <= x98 <= 1
 0 <= x99 <= 1
 0 <= x100 <= 1
 0 <= x101 <= 1
 0 <= x102 <= 1
 0 <= x103 <= 1
 0 <= x104 <= 1
 0 <= x105 <= 1
      x106 = 0
 0 <= x107 <= 1
 0 <= x108 <= 1
 0 <= x109 <= 1
 0 <= x110 <= 1
 0 <= x111 <= 1
 0 <= x112 <= 1
 0 <= x113 <= 1
 0 <= x114 <= 1
 0 <= x115 <= 1
 0 <= x116 <= 1
 0 <= x117 <= 1
 0 <= x118 <= 1
 0 <= x119 <= 1
 0 <= x120 <= 1
 0 <= x121 <= 1
 0 <= x122 <= 1
 0 <= x123 <= 1
 0 <= x124 <= 1
 0 <= x125 <= 1
 0 <= x126 <= 1
      x127 = 0
 0 <= x128 <= 1
 0 <= x129 <= 1
 0 <= x130 <= 1
 0 <= x131 <= 1
 0 <= x132 <= 1
 0 <= x133 <= 1
 0 <= x134 <= 1
 0 <= x135 <= 1
 0 <= x136 <= 1
 0 <= x137 <= 1
 0 <= x138 <= 1
 0 <= x139 <= 1
 0 <= x140 <= 1
 0 <= x141 <= 1
 0 <= x142 <= 1
 0 <= x143 <= 1
 0 <= x144 <= 1
 0 <= x145 <= 1
 0 <= x146 <= 1
 0 <= x147 <= 1
      x148 = 0
 0 <= x149 <= 1
 0 <= x150 <= 1
 0 <= x151 <= 1
 0 <= x152 <= 1
 0 <= x153 <= 1
 0 <= x154 <= 1
 0 <= x155 <= 1
 0 <= x156 <= 1
 0 <= x157 <= 1
 0 <= x158 <= 1
 0 <= x159 <= 1
 0 <= x160 <= 1
 0 <= x161 <= 1
 0 <= x162 <= 1
 0 <= x163 <= 1
 0 <= x164 <= 1
 0 <= x165 <= 1
 0 <= x166 <= 1
 0 <= x167 <= 1
 0 <= x168 <= 1
      x169 = 0
 0 <= x170 <= 1
 0 <= x171 <= 1
 0 <= x172 <= 1
 0 <= x173 <= 1
 0 <= x174 <= 1
 0 <= x175 <= 1
 0 <= x176 <= 1
 0 <= x177 <= 1
 0 <= x178 <= 1
 0 <= x179 <= 1
 0 <= x180 <= 1
 0 <= x181 <= 1
 0 <= x182 <= 1
 0 <= x183 <= 1
 0 <= x184 <= 1
 0 <= x185 <= 1
 0 <= x186 <= 1
 0 <= x187 <= 1
 0 <= x188 <= 1
 0 <= x189 <= 1
      x190 = 0
 0 <= x191 <= 1
 0 <= x192 <= 1
 0 <= x193 <= 1
 0 <= x194 <= 1
 0 <= x195 <= 1
 0 <= x196 <= 1
 0 <= x197 <= 1
 0 <= x198 <= 1
 0 <= x199 <= 1
 0 <= x200 <= 1
 0 <= x201 <= 1
 0 <= x202 <= 1
 0 <= x203 <= 1
 0 <= x204 <= 1
 0 <= x205 <= 1
 0 <= x206 <= 1
 0 <= x207 <= 1
 0 <= x208 <= 1
 0 <= x209 <= 1
 0 <= x210 <= 1
      x211 = 0
 0 <= x212 <= 1
 0 <= x213 <= 1
 0 <= x214 <= 1
 0 <= x215 <= 1
 0 <= x216 <= 1
 0 <= x217 <= 1
 0 <= x218 <= 1
 0 <= x219 <= 1
 0 <= x220 <= 1
 0 <= x221 <= 1
 0 <= x222 <= 1
 0 <= x223 <= 1
 0 <= x224 <= 1
 0 <= x225 <= 1
 0 <= x226 <= 1
 0 <= x227 <= 1
 0 <= x228 <= 1
 0 <= x229 <= 1
 0 <= x230 <= 1
 0 <= x231 <= 1
      x232 = 0
 0 <= x233 <= 1
 0 <= x234 <= 1
 0 <= x235 <= 1
 0 <= x236 <= 1
 0 <= x237 <= 1
 0 <= x238 <= 1
 0 <= x239 <= 1
 0 <= x240 <= 1
 0 <= x241 <= 1
 0 <= x242 <= 1
 0 <= x243 <= 1
 0 <= x244 <= 1
 0 <= x245 <= 1
 0 <= x246 <= 1
 0 <= x247 <= 1
 0 <= x248 <= 1
 0 <= x249 <= 1
 0 <= x250 <= 1
 0 <= x251 <= 1
 0 <= x252 <= 1
      x253 = 0
 0 <= x254 <= 1
 0 <= x255 <= 1
 0 <= x256 <= 1
 0 <= x257 <= 1
 0 <= x258 <= 1
 0 <= x259 <= 1
 0 <= x260 <= 1
 0 <= x261 <= 1
 0 <= x262 <= 1
 0 <= x263 <= 1
 0 <= x264 <= 1
 0 <= x265 <= 1
 0 <= x266 <= 1
 0 <= x267 <= 1
 0 <= x268 <= 1
 0 <= x269 <= 1
 0 <= x270 <= 1
 0 <= x271 <= 1
 0 <= x272 <= 1
 0 <= x273 <= 1
      x274 = 0
 0 <= x275 <= 1
 0 <= x276 <= 1
 0 <= x277 <= 1
 0 <= x278 <= 1
 0 <= x279 <= 1
 0 <= x280 <= 1
 0 <= x281 <= 1
 0 <= x282 <= 1
 0 <= x283 <= 1
 0 <= x284 <= 1
 0 <= x285 <= 1
 0 <= x286 <= 1
 0 <= x287 <= 1
 0 <= x288 <= 1
 0 <= x289 <= 1
 0 <= x290 <= 1
 0 <= x291 <= 1
 0 <= x292 <= 1
 0 <= x293 <= 1
 0 <= x294 <= 1
      x295 = 0
 0 <= x296 <= 1
 0 <= x297 <= 1
 0 <= x298 <= 1
 0 <= x299 <= 1
 0 <= x300 <= 1
 0 <= x301 <= 1
 0 <= x302 <= 1
 0 <= x303 <= 1
 0 <= x304 <= 1
 0 <= x305 <= 1
 0 <= x306 <= 1
 0 <= x307 <= 1
 0 <= x308 <= 1
 0 <= x309 <= 1
 0 <= x310 <= 1
 0 <= x311 <= 1
 0 <= x312 <= 1
 0 <= x313 <= 1
 0 <= x314 <= 1
 0 <= x315 <= 1
      x316 = 0
 0 <= x317 <= 1
 0 <= x318 <= 1
 0 <= x319 <= 1
 0 <= x320 <= 1
 0 <= x321 <= 1
 0 <= x322 <= 1
 0 <= x323 <= 1
 0 <= x324 <= 1
 0 <= x325 <= 1
 0 <= x326 <= 1
 0 <= x327 <= 1
 0 <= x328 <= 1
 0 <= x329 <= 1
 0 <= x330 <= 1
 0 <= x331 <= 1
 0 <= x332 <= 1
 0 <= x333 <= 1
 0 <= x334 <= 1
 0 <= x335 <= 1
 0 <= x336 <= 1
      x337 = 0
 0 <= x338 <= 1
 0 <= x339 <= 1
 0 <= x340 <= 1
 0 <= x341 <= 1
 0 <= x342 <= 1
 0 <= x343 <= 1
 0 <= x344 <= 1
 0 <= x345 <= 1
 0 <= x346 <= 1
 0 <= x347 <= 1
 0 <= x348 <= 1
 0 <= x349 <= 1
 0 <= x350 <= 1
 0 <= x351 <= 1
 0 <= x352 <= 1
 0 <= x353 <= 1
 0 <= x354 <= 1
 0 <= x355 <= 1
 0 <= x356 <= 1
 0 <= x357 <= 1
      x358 = 0
 0 <= x359 <= 1
 0 <= x360 <= 1
 0 <= x361 <= 1
 0 <= x362 <= 1
 0 <= x363 <= 1
 0 <= x364 <= 1
 0 <= x365 <= 1
 0 <= x366 <= 1
 0 <= x367 <= 1
 0 <= x368 <= 1
 0 <= x369 <= 1
 0 <= x370 <= 1
 0 <= x371 <= 1
 0 <= x372 <= 1
 0 <= x373 <= 1
 0 <= x374 <= 1
 0 <= x375 <= 1
 0 <= x376 <= 1
 0 <= x377 <= 1
 0 <= x378 <= 1
      x379 = 0
 0 <= x380 <= 1
 0 <= x381 <= 1
 0 <= x382 <= 1
 0 <= x383 <= 1
 0 <= x384 <= 1
 0 <= x385 <= 1
 0 <= x386 <= 1
 0 <= x387 <= 1
 0 <= x388 <= 1
 0 <= x389 <= 1
 0 <= x390 <= 1
 0 <= x391 <= 1
 0 <= x392 <= 1
 0 <= x393 <= 1
 0 <= x394 <= 1
 0 <= x395 <= 1
 0 <= x396 <= 1
 0 <= x397 <= 1
 0 <= x398 <= 1
 0 <= x399 <= 1
      x400 = 0
 1 <= x401 <= 19
 1 <= x402 <= 19
 1 <= x403 <= 19
 1 <= x404 <= 19
 1 <= x405 <= 19
 1 <= x406 <= 19
 1 <= x407 <= 19
 1 <= x408 <= 19
 1 <= x409 <= 19
 1 <= x410 <= 19
 1 <= x411 <= 19
 1 <= x412 <= 19
 1 <= x413 <= 19
 1 <= x414 <= 19
 1 <= x415 <= 19
 1 <= x416 <= 19
 1 <= x417 <= 19
 1 <= x418 <= 19
 1 <= x419 <= 19
Binaries
 x1  x2  x3  x4  x5  x6  x7  x8  x9  x10  x11  x12  x13  x14  x15  x16  x17 
 x18  x19  x20  x21  x22  x23  x24  x25  x26  x27  x28  x29  x30  x31  x32 
 x33  x34  x35  x36  x37  x38  x39  x40  x41  x42  x43  x44  x45  x46  x47 
 x48  x49  x50  x51  x52  x53  x54  x55  x56  x57  x58  x59  x60  x61  x62 
 x63  x64  x65  x66  x67  x68  x69  x70  x71  x72  x73  x74  x75  x76  x77 
 x78  x79  x80  x81  x82  x83  x84  x85  x86  x87  x88  x89  x90  x91  x92 
 x93  x94  x95  x96  x97  x98  x99  x100  x101  x102  x103  x104  x105  x106 
 x107  x108  x109  x110  x111  x112  x113  x114  x115  x116  x117  x118  x119 
 x120  x121  x122  x123  x124  x125  x126  x127  x128  x129  x130  x131  x132 
 x133  x134  x135  x136  x137  x138  x139  x140  x141  x142  x143  x144  x145 
 x146  x147  x148  x149  x150  x151  x152  x153  x154  x155  x156  x157  x158 
 x159  x160  x161  x162  x163  x164  x165  x166  x167  x168  x169  x170  x171 
 x172  x173  x174  x175  x176  x177  x178  x179  x180  x181  x182  x183  x184 
 x185  x186  x187  x188  x189  x190  x191  x192  x193  x194  x195  x196  x197 
 x198  x199  x200  x201  x202  x203  x204  x205  x206  x207  x208  x209  x210 
 x211  x212  x213  x214  x215  x216  x217  x218  x219  x220  x221  x222  x223 
 x224  x225  x226  x227  x228  x229  x230  x231  x232  x233  x234  x235  x236 
 x237  x238  x239  x240  x241  x242  x243  x244  x245  x246  x247  x248  x249 
 x250  x251  x252  x253  x254  x255  x256  x257  x258  x259  x260  x261  x262 
 x263  x264  x265  x266  x267  x268  x269  x270  x271  x272  x273  x274  x275 
 x276  x277  x278  x279  x280  x281  x282  x283  x284  x285  x286  x287  x288 
 x289  x290  x291  x292  x293  x294  x295  x296  x297  x298  x299  x300  x301 
 x302  x303  x304  x305  x306  x307  x308  x309  x310  x311  x312  x313  x314 
 x315  x316  x317  x318  x319  x320  x321  x322  x323  x324  x325  x326  x327 
 x328  x329  x330  x331  x332  x333  x334  x335  x336  x337  x338  x339  x340 
 x341  x342  x343  x344  x345  x346  x347  x348  x349  x350  x351  x352  x353 
 x354  x355  x356  x357  x358  x359  x360  x361  x362  x363  x364  x365  x366 
 x367  x368  x369  x370  x371  x372  x373  x374  x375  x376  x377  x378  x379 
 x380  x381  x382  x383  x384  x385  x386  x387  x388  x389  x390  x391  x392 
 x393  x394  x395  x396  x397  x398  x399  x400 
Generals
 x401  x402  x403  x404  x405  x406  x407  x408  x409  x410  x411  x412  x413 
 x414  x415  x416  x417  x418  x419 
End
